data/solutions/planning/wellformed/moderate/weighting/wellformed_moderate_instance52_gurobi.sol
Elapsed time: 45.37
Nodes explored: 987484
Nodes left: 6
Relative gap: 0.0
Upper bound: 75601.0
Lower bound: 75601
C[0]=2439.0
C[1]=2439.0
C[2]=2438.0
C[3]=2438.0
C[4]=2437.0
y[0]=0
y[1]=3
y[2]=1
y[3]=2
y[4]=4
y[5]=4
y[6]=1
y[7]=2
y[8]=3
y[9]=3
y[10]=0
y[11]=2
y[12]=0
y[13]=2
y[14]=1
y[15]=3
y[16]=4
y[17]=0
y[18]=1
y[19]=1
